       N       E                     dE             d eps       ncg     rms          rms(c)
DAV:   1     0.117432671844E+05    0.11743E+05   -0.56035E+05 18470   0.105E+03
DAV:   2     0.100754684832E+04   -0.10736E+05   -0.95614E+04 22520   0.255E+02
DAV:   3    -0.169603646686E+04   -0.27036E+04   -0.26174E+04 21850   0.131E+02
DAV:   4    -0.183553770536E+04   -0.13950E+03   -0.13821E+03 23050   0.378E+01
DAV:   5    -0.183891030370E+04   -0.33726E+01   -0.33682E+01 23470   0.598E+00
DAV:   6    -0.183901457034E+04   -0.10427E+00   -0.10422E+00 23810   0.102E+00
DAV:   7    -0.183901893672E+04   -0.43664E-02   -0.43658E-02 24000   0.195E-01
DAV:   8    -0.183901911330E+04   -0.17658E-03   -0.17656E-03 20580   0.365E-02
DAV:   9    -0.183901912249E+04   -0.91910E-05   -0.91809E-05 14180   0.954E-03
DAV:  10    -0.183901912401E+04   -0.15186E-05   -0.15108E-05 12420   0.511E-03
DAV:  11    -0.183901912462E+04   -0.61063E-06   -0.60183E-06 11350   0.331E-03
DAV:  12    -0.183901912490E+04   -0.28053E-06   -0.27291E-06 11000   0.224E-03    0.123E-01
RMM:  13    -0.183902125497E+04   -0.21301E-02   -0.24845E-04 13908   0.216E-02    0.243E-01
RMM:  14    -0.183902125490E+04    0.76412E-07   -0.71265E-05 13189   0.117E-02
   1 F= -.18618974E+04 E0= -.18618645E+04  d E =-.987092E-01  mag=   159.6102
