Co50Al10H144O144
1.0
     27.9405456       0.0000000       0.0000000
     -9.3135152      16.1314815       0.0000000
      0.0000000       0.0000000      27.5481091
  Co    Al    H     O   
  50    10   144   144  
Direct
      0.0015535       0.4981098       0.5808488
      0.1094334       0.4980528       0.5005234
      0.1091899       0.1624340       0.4994909
      0.0017174       0.3364642       0.5000470
      0.1122719       0.3325180       0.4966523
      0.2253949       0.3366783       0.4983801
      0.0015535       0.9981098       0.5808488
      0.3330893       0.5014295       0.4181634
      0.1094334       0.9980528       0.5005234
      0.2248962       0.9993452       0.5015529
      0.1091899       0.6624340       0.4994909
      0.2223810       0.6671788       0.4997913
      0.0017174       0.8364642       0.5000470
      0.1122719       0.8325180       0.4966523
      0.2253949       0.8366783       0.4983801
      0.3348869       0.4981098       0.5808488
      0.6664226       0.0014295       0.4181634
      0.5582295       0.4993452       0.5015529
      0.3344836       0.1637765       0.5019261
      0.4425233       0.1624340       0.4994909
      0.5557143       0.1671788       0.4997913
      0.3350507       0.3364642       0.5000470
      0.4456053       0.3325180       0.4966523
      0.5587282       0.3366783       0.4983801
      0.3348869       0.9981098       0.5808488
      0.4427667       0.9980528       0.5005234
      0.5582295       0.9993452       0.5015529
      0.3344836       0.6637765       0.5019261
      0.4425233       0.6624340       0.4994909
      0.5557143       0.6671788       0.4997913
      0.3350507       0.8364642       0.5000470
      0.5587282       0.8366783       0.4983801
      0.6682202       0.4981098       0.5808488
      0.9997559       0.0014295       0.4181634
      0.7761000       0.4980528       0.5005234
      0.8915629       0.4993452       0.5015529
      0.7758566       0.1624340       0.4994909
      0.8890476       0.1671788       0.4997913
      0.6683841       0.3364642       0.5000470
      0.7789386       0.3325180       0.4966523
      0.8920615       0.3366783       0.4983801
      0.6682202       0.9981098       0.5808488
      0.9997559       0.5014295       0.4181634
      0.7761000       0.9980528       0.5005234
      0.8915629       0.9993452       0.5015529
      0.6678169       0.6637765       0.5019261
      0.7758566       0.6624340       0.4994909
      0.8890476       0.6671788       0.4997913
      0.7789386       0.8325180       0.4966523
      0.8920615       0.8366783       0.4983801
      0.4427667       0.4980528       0.5005234
      0.0011503       0.6637765       0.5019261
      0.6678169       0.1637765       0.5019261
      0.0011503       0.1637765       0.5019261
      0.3330893       0.0014295       0.4181634
      0.6664226       0.5014295       0.4181634
      0.6683841       0.8364642       0.5000470
      0.2248962       0.4993452       0.5015529
      0.4456053       0.8325180       0.4966523
      0.2223810       0.1671788       0.4997913
      0.0949379       0.0681277       0.4273372
      0.0531447       0.1403828       0.5753151
      0.1359910       0.1026157       0.5721956
      0.1859048       0.0522723       0.4265313
      0.1499873       0.2773614       0.5729796
      0.0658193       0.1987241       0.4283498
      0.0414830       0.2777874       0.5737010
      0.1850005       0.2216625       0.4253065
      0.0504431       0.4212633       0.5739060
      0.0689128       0.3993933       0.4269370
      0.1483648       0.4383874       0.5733796
      0.2013079       0.4032314       0.4276993
      0.2411586       0.4198267       0.5739117
      0.2910534       0.3587101       0.4263798
      0.2638019       0.2933447       0.5713730
      0.3012389       0.2249631       0.4260931
      0.2599953       0.1096021       0.5730013
      0.2867103       0.0738767       0.4293587
      0.2723438       0.4231364       0.3569215
      0.0401947       0.4817396       0.3493833
      0.0095025       0.0865556       0.3538293
      0.0537122       0.0287635       0.6549326
      0.3046060       0.4245404       0.6571576
      0.0949379       0.5681277       0.4273372
      0.0531447       0.6403828       0.5753151
      0.1359910       0.6026157       0.5721956
      0.1859048       0.5522723       0.4265313
      0.1499873       0.7773614       0.5729796
      0.0658193       0.6987241       0.4283498
      0.0414830       0.7777874       0.5737010
      0.1850005       0.7216625       0.4253065
      0.0504431       0.9212633       0.5739060
      0.0689128       0.8993933       0.4269370
      0.1483648       0.9383874       0.5733796
      0.2013079       0.9032314       0.4276993
      0.2411586       0.9198267       0.5739117
      0.2910534       0.8587101       0.4263798
      0.2638019       0.7933447       0.5713730
      0.3012389       0.7249631       0.4260931
      0.2599953       0.6096021       0.5730013
      0.2867103       0.5738767       0.4293587
      0.2723438       0.9231364       0.3569215
      0.0401947       0.9817396       0.3493833
      0.0095025       0.5865556       0.3538293
      0.0537122       0.5287635       0.6549326
      0.3046060       0.9245404       0.6571576
      0.4282713       0.0681277       0.4273372
      0.3864780       0.1403828       0.5753151
      0.4693244       0.1026157       0.5721956
      0.5192382       0.0522723       0.4265313
      0.4833206       0.2773614       0.5729796
      0.3991526       0.1987241       0.4283498
      0.3748163       0.2777874       0.5737010
      0.5183338       0.2216625       0.4253065
      0.3837765       0.4212633       0.5739060
      0.4022462       0.3993933       0.4269370
      0.4816982       0.4383874       0.5733796
      0.5346413       0.4032314       0.4276993
      0.5744919       0.4198267       0.5739117
      0.6243867       0.3587101       0.4263798
      0.5971352       0.2933447       0.5713730
      0.6345722       0.2249631       0.4260931
      0.5933286       0.1096021       0.5730013
      0.6200436       0.0738767       0.4293587
      0.6056771       0.4231364       0.3569215
      0.3735280       0.4817396       0.3493833
      0.3428358       0.0865556       0.3538293
      0.3870455       0.0287635       0.6549326
      0.6379394       0.4245404       0.6571576
      0.4282713       0.5681277       0.4273372
      0.3864780       0.6403828       0.5753151
      0.4693244       0.6026157       0.5721956
      0.5192382       0.5522723       0.4265313
      0.4833206       0.7773614       0.5729796
      0.3991526       0.6987241       0.4283498
      0.3748163       0.7777874       0.5737010
      0.5183338       0.7216625       0.4253065
      0.3837765       0.9212633       0.5739060
      0.4022462       0.8993933       0.4269370
      0.4816982       0.9383874       0.5733796
      0.5346413       0.9032314       0.4276993
      0.5744919       0.9198267       0.5739117
      0.6243867       0.8587101       0.4263798
      0.5971352       0.7933447       0.5713730
      0.6345722       0.7249631       0.4260931
      0.5933286       0.6096021       0.5730013
      0.6200436       0.5738767       0.4293587
      0.6056771       0.9231364       0.3569215
      0.3735280       0.9817396       0.3493833
      0.3428358       0.5865556       0.3538293
      0.3870455       0.5287635       0.6549326
      0.6379394       0.9245404       0.6571576
      0.7616046       0.0681277       0.4273372
      0.7198113       0.1403828       0.5753151
      0.8026577       0.1026157       0.5721956
      0.8525715       0.0522723       0.4265313
      0.8166539       0.2773614       0.5729796
      0.7324859       0.1987241       0.4283498
      0.7081496       0.2777874       0.5737010
      0.8516672       0.2216625       0.4253065
      0.7171098       0.4212633       0.5739060
      0.7355795       0.3993933       0.4269370
      0.8150315       0.4383874       0.5733796
      0.8679746       0.4032314       0.4276993
      0.9078253       0.4198267       0.5739117
      0.9577200       0.3587101       0.4263798
      0.9304686       0.2933447       0.5713730
      0.9679056       0.2249631       0.4260931
      0.9266619       0.1096021       0.5730013
      0.9533770       0.0738767       0.4293587
      0.9390104       0.4231364       0.3569215
      0.7068613       0.4817396       0.3493833
      0.6761692       0.0865556       0.3538293
      0.7203788       0.0287635       0.6549326
      0.9712727       0.4245404       0.6571576
      0.7616046       0.5681277       0.4273372
      0.7198113       0.6403828       0.5753151
      0.8026577       0.6026157       0.5721956
      0.8525715       0.5522723       0.4265313
      0.8166539       0.7773614       0.5729796
      0.7324859       0.6987241       0.4283498
      0.7081496       0.7777874       0.5737010
      0.8516672       0.7216625       0.4253065
      0.7171098       0.9212633       0.5739060
      0.7355795       0.8993933       0.4269370
      0.8150315       0.9383874       0.5733796
      0.8679746       0.9032314       0.4276993
      0.9078253       0.9198267       0.5739117
      0.9577200       0.8587101       0.4263798
      0.9304686       0.7933447       0.5713730
      0.9679056       0.7249631       0.4260931
      0.9266619       0.6096021       0.5730013
      0.9533770       0.5738767       0.4293587
      0.9390104       0.9231364       0.3569215
      0.7068613       0.9817396       0.3493833
      0.6761692       0.5865556       0.3538293
      0.7203788       0.5287635       0.6549326
      0.9712727       0.9245404       0.6571576
      0.9576626       0.5143264       0.6468953
      0.9576626       0.0143264       0.6468953
      0.2909960       0.0143264       0.6468953
      0.6243293       0.5143264       0.6468953
      0.6243293       0.0143264       0.6468953
      0.2909960       0.5143264       0.6468953
      0.0713940       0.0523733       0.4561267
      0.0339329       0.1062475       0.5470778
      0.1451166       0.1081887       0.5377449
      0.1859530       0.0549801       0.4616789
      0.1496226       0.2769937       0.5378012
      0.0728849       0.2166746       0.4622974
      0.0387574       0.2768663       0.5386141
      0.1854179       0.2220283       0.4604983
      0.0391064       0.4408895       0.5458525
      0.0738380       0.3907921       0.4610833
      0.1492547       0.4426728       0.5382955
      0.1895116       0.3919805       0.4616408
      0.2633285       0.4491272       0.5454445
      0.2990644       0.3944970       0.4547254
      0.2611071       0.2816260       0.5366996
      0.2981645       0.2232555       0.4611726
      0.2598049       0.1110072       0.5378381
      0.2983147       0.0543359       0.4574595
      0.2698022       0.4628364       0.3783951
      0.0270089       0.4469969       0.3783738
      0.0350496       0.0993873       0.3809942
      0.0587314       0.0589431       0.6247716
      0.2926246       0.4102950       0.6236350
      0.0713940       0.5523733       0.4561267
      0.0339329       0.6062475       0.5470778
      0.1451166       0.6081887       0.5377449
      0.1859530       0.5549801       0.4616789
      0.1496226       0.7769937       0.5378012
      0.0728849       0.7166746       0.4622974
      0.0387574       0.7768663       0.5386141
      0.1854179       0.7220283       0.4604983
      0.0391064       0.9408895       0.5458525
      0.0738380       0.8907921       0.4610833
      0.1492547       0.9426728       0.5382955
      0.1895116       0.8919805       0.4616408
      0.2633285       0.9491272       0.5454445
      0.2990644       0.8944970       0.4547254
      0.2611071       0.7816260       0.5366996
      0.2981645       0.7232555       0.4611726
      0.2598049       0.6110072       0.5378381
      0.2983147       0.5543359       0.4574595
      0.2698022       0.9628364       0.3783951
      0.0270089       0.9469969       0.3783738
      0.0350496       0.5993873       0.3809942
      0.0587314       0.5589431       0.6247716
      0.2926246       0.9102950       0.6236350
      0.4047274       0.0523733       0.4561267
      0.3672663       0.1062475       0.5470778
      0.4784500       0.1081887       0.5377449
      0.5192863       0.0549801       0.4616789
      0.4829559       0.2769937       0.5378012
      0.4062182       0.2166746       0.4622974
      0.3720908       0.2768663       0.5386141
      0.5187513       0.2220283       0.4604983
      0.3724397       0.4408895       0.5458525
      0.4071713       0.3907921       0.4610833
      0.4825881       0.4426728       0.5382955
      0.5228450       0.3919805       0.4616408
      0.5966618       0.4491272       0.5454445
      0.6323977       0.3944970       0.4547254
      0.5944405       0.2816260       0.5366996
      0.6314978       0.2232555       0.4611726
      0.5931382       0.1110072       0.5378381
      0.6316480       0.0543359       0.4574595
      0.6031355       0.4628364       0.3783951
      0.3603423       0.4469969       0.3783738
      0.3683830       0.0993873       0.3809942
      0.3920647       0.0589431       0.6247716
      0.6259580       0.4102950       0.6236350
      0.4047274       0.5523733       0.4561267
      0.3672663       0.6062475       0.5470778
      0.4784500       0.6081887       0.5377449
      0.5192863       0.5549801       0.4616789
      0.4829559       0.7769937       0.5378012
      0.4062182       0.7166746       0.4622974
      0.3720908       0.7768663       0.5386141
      0.5187513       0.7220283       0.4604983
      0.3724397       0.9408895       0.5458525
      0.4071713       0.8907921       0.4610833
      0.4825881       0.9426728       0.5382955
      0.5228450       0.8919805       0.4616408
      0.5966618       0.9491272       0.5454445
      0.6323977       0.8944970       0.4547254
      0.5944405       0.7816260       0.5366996
      0.6314978       0.7232555       0.4611726
      0.5931382       0.6110072       0.5378381
      0.6316480       0.5543359       0.4574595
      0.6031355       0.9628364       0.3783951
      0.3603423       0.9469969       0.3783738
      0.3683830       0.5993873       0.3809942
      0.3920647       0.5589431       0.6247716
      0.6259580       0.9102950       0.6236350
      0.7380607       0.0523733       0.4561267
      0.7005996       0.1062475       0.5470778
      0.8117833       0.1081887       0.5377449
      0.8526197       0.0549801       0.4616789
      0.8162893       0.2769937       0.5378012
      0.7395515       0.2166746       0.4622974
      0.7054241       0.2768663       0.5386141
      0.8520846       0.2220283       0.4604983
      0.7057731       0.4408895       0.5458525
      0.7405046       0.3907921       0.4610833
      0.8159214       0.4426728       0.5382955
      0.8561783       0.3919805       0.4616408
      0.9299952       0.4491272       0.5454445
      0.9657311       0.3944970       0.4547254
      0.9277738       0.2816260       0.5366996
      0.9648311       0.2232555       0.4611726
      0.9264715       0.1110072       0.5378381
      0.9649814       0.0543359       0.4574595
      0.9364689       0.4628364       0.3783951
      0.6936756       0.4469969       0.3783738
      0.7017163       0.0993873       0.3809942
      0.7253980       0.0589431       0.6247716
      0.9592913       0.4102950       0.6236350
      0.7380607       0.5523733       0.4561267
      0.7005996       0.6062475       0.5470778
      0.8117833       0.6081887       0.5377449
      0.8526197       0.5549801       0.4616789
      0.8162893       0.7769937       0.5378012
      0.7395515       0.7166746       0.4622974
      0.7054241       0.7768663       0.5386141
      0.8520846       0.7220283       0.4604983
      0.7057731       0.9408895       0.5458525
      0.7405046       0.8907921       0.4610833
      0.8159214       0.9426728       0.5382955
      0.8561783       0.8919805       0.4616408
      0.9299952       0.9491272       0.5454445
      0.9657311       0.8944970       0.4547254
      0.9277738       0.7816260       0.5366996
      0.9648311       0.7232555       0.4611726
      0.9264715       0.6110072       0.5378381
      0.9649814       0.5543359       0.4574595
      0.9364689       0.9628364       0.3783951
      0.6936756       0.9469969       0.3783738
      0.7017163       0.5993873       0.3809942
      0.7253980       0.5589431       0.6247716
      0.9592913       0.9102950       0.6236350
      0.9735882       0.5519252       0.6192704
      0.9735882       0.0519252       0.6192704
      0.3069216       0.0519252       0.6192704
      0.6402549       0.5519252       0.6192704
      0.6402549       0.0519252       0.6192704
      0.3069216       0.5519252       0.6192704

