       N       E                     dE             d eps       ncg     rms          rms(c)
DAV:   1     0.117392969954E+05    0.11739E+05   -0.56075E+05 18460   0.106E+03
DAV:   2     0.100189945798E+04   -0.10737E+05   -0.95650E+04 22550   0.255E+02
DAV:   3    -0.170209267932E+04   -0.27040E+04   -0.26187E+04 21790   0.131E+02
DAV:   4    -0.184133120562E+04   -0.13924E+03   -0.13796E+03 23130   0.378E+01
DAV:   5    -0.184465075881E+04   -0.33196E+01   -0.33150E+01 23490   0.593E+00
DAV:   6    -0.184475486107E+04   -0.10410E+00   -0.10405E+00 23730   0.101E+00
DAV:   7    -0.184475924676E+04   -0.43857E-02   -0.43851E-02 24110   0.196E-01
DAV:   8    -0.184475941428E+04   -0.16752E-03   -0.16749E-03 20550   0.356E-02    0.584E-01
DAV:   9    -0.184476259438E+04   -0.31801E-02   -0.48685E-03 17880   0.111E-01    0.703E-01
DAV:  10    -0.184476226362E+04    0.33076E-03   -0.75893E-03 19330   0.121E-01    0.569E-01
DAV:  11    -0.184476310610E+04   -0.84248E-03   -0.27491E-03 19700   0.883E-02    0.497E-01
DAV:  12    -0.184476499747E+04   -0.18914E-02   -0.62810E-03 22300   0.114E-01    0.567E-01
DAV:  13    -0.184476476543E+04    0.23205E-03   -0.10735E-03 18930   0.466E-02    0.531E-01
DAV:  14    -0.184476413254E+04    0.63289E-03   -0.31724E-04 13930   0.270E-02    0.442E-01
DAV:  15    -0.184476381201E+04    0.32052E-03   -0.10861E-03 15520   0.632E-02    0.401E-01
DAV:  16    -0.184476407793E+04   -0.26592E-03   -0.37037E-04 14120   0.359E-02    0.336E-01
DAV:  17    -0.184476479480E+04   -0.71687E-03   -0.32048E-04 13610   0.335E-02    0.279E-01
DAV:  18    -0.184476589672E+04   -0.11019E-02   -0.85989E-04 17010   0.566E-02    0.264E-01
DAV:  19    -0.184476805177E+04   -0.21550E-02   -0.40908E-03 22440   0.697E-02    0.313E-01
DAV:  20    -0.184476802632E+04    0.25446E-04   -0.43686E-04 16900   0.249E-02
   1 F= -.18676866E+04 E0= -.18676465E+04  d E =-.120472E+00  mag=   158.2632
