       N       E                     dE             d eps       ncg     rms          rms(c)
DAV:   1     0.122631871222E+05    0.12263E+05   -0.58866E+05 18350   0.111E+03
DAV:   2     0.120265992546E+04   -0.11061E+05   -0.99027E+04 22090   0.267E+02
DAV:   3    -0.164081557557E+04   -0.28435E+04   -0.27437E+04 21870   0.137E+02
DAV:   4    -0.180380710208E+04   -0.16299E+03   -0.16061E+03 22740   0.404E+01
DAV:   5    -0.180752485714E+04   -0.37178E+01   -0.37128E+01 23020   0.648E+00
DAV:   6    -0.180765494271E+04   -0.13009E+00   -0.13004E+00 23860   0.112E+00
DAV:   7    -0.180765912160E+04   -0.41789E-02   -0.41783E-02 23210   0.201E-01
DAV:   8    -0.180765930159E+04   -0.17999E-03   -0.17996E-03 20170   0.389E-02
DAV:   9    -0.180765931058E+04   -0.89898E-05   -0.89790E-05 13970   0.980E-03
DAV:  10    -0.180765931200E+04   -0.14269E-05   -0.14169E-05 11890   0.501E-03
DAV:  11    -0.180765931254E+04   -0.53535E-06   -0.52636E-06 10960   0.306E-03
DAV:  12    -0.180765931277E+04   -0.23053E-06   -0.22103E-06 10670   0.198E-03    0.110E+00
RMM:  13    -0.180769268391E+04   -0.33371E-01   -0.14751E-02 19880   0.884E-02    0.249E+00
RMM:  14    -0.180768232253E+04    0.10361E-01   -0.91090E-03 20867   0.844E-02    0.245E+00
RMM:  15    -0.180767861712E+04    0.37054E-02   -0.23183E-03 20951   0.643E-02    0.233E+00
RMM:  16    -0.180768071940E+04   -0.21023E-02   -0.50600E-03 21741   0.652E-02    0.299E+00
RMM:  17    -0.180765334412E+04    0.27375E-01   -0.14916E-02 25731   0.117E-01    0.192E+00
RMM:  18    -0.180765319443E+04    0.14969E-03   -0.41801E-03 22895   0.741E-02    0.114E+00
RMM:  19    -0.180765599093E+04   -0.27965E-02   -0.24718E-03 22399   0.584E-02    0.100E+00
RMM:  20    -0.180765400873E+04    0.19822E-02   -0.92173E-04 21098   0.368E-02    0.663E-01
RMM:  21    -0.180765405490E+04   -0.46165E-04   -0.68360E-04 20452   0.260E-02
   1 F= -.18308344E+04 E0= -.18307784E+04  d E =-.168280E+00  mag=   172.4544
