       N       E                     dE             d eps       ncg     rms          rms(c)
DAV:   1     0.122562389159E+05    0.12256E+05   -0.58877E+05 18350   0.111E+03
DAV:   2     0.119892294497E+04   -0.11057E+05   -0.98991E+04 22120   0.266E+02
DAV:   3    -0.164648094713E+04   -0.28454E+04   -0.27458E+04 21850   0.137E+02
DAV:   4    -0.181006833569E+04   -0.16359E+03   -0.16128E+03 22590   0.405E+01
DAV:   5    -0.181391728389E+04   -0.38489E+01   -0.38437E+01 22970   0.657E+00
DAV:   6    -0.181405407020E+04   -0.13679E+00   -0.13674E+00 23840   0.115E+00
DAV:   7    -0.181405834659E+04   -0.42764E-02   -0.42758E-02 23130   0.204E-01
DAV:   8    -0.181405852725E+04   -0.18065E-03   -0.18063E-03 20460   0.393E-02
DAV:   9    -0.181405853580E+04   -0.85540E-05   -0.85445E-05 13880   0.969E-03
DAV:  10    -0.181405853719E+04   -0.13945E-05   -0.13848E-05 11920   0.497E-03
DAV:  11    -0.181405853772E+04   -0.52541E-06   -0.51669E-06 10960   0.302E-03
DAV:  12    -0.181405853795E+04   -0.22521E-06   -0.21655E-06 10710   0.196E-03    0.445E-02
RMM:  13    -0.181405881328E+04   -0.27534E-03   -0.67667E-05 12089   0.714E-03    0.233E-01
RMM:  14    -0.181405853947E+04    0.27382E-03   -0.30885E-05 12034   0.826E-03    0.673E-02
RMM:  15    -0.181405862028E+04   -0.80811E-04   -0.11408E-05 11704   0.442E-03
   1 F= -.18372792E+04 E0= -.18372194E+04  d E =-.179451E+00  mag=   170.1386
