reaction density *O at frozen *OH geometry; removed H204
   1.00000000000000     
    27.9405456000000001    0.0000000000000000    0.0000000000000000
    -9.3135151999999994   16.1314815240000016    0.0000000000000000
     0.0000000000000000    0.0000000000000000   27.5481091199999995
   Co   H    O 
  60  143  144
Direct
  0.0015535415887911  0.4981097680509095  0.5808488070429974
  0.3330892694200998  0.0014294896568430  0.4181634121029205
  0.1094333505658298  0.4980528064917209  0.5005233634384894
  0.2248961890282715  0.4993452086086094  0.5015529186844532
  0.0011502750828214  0.1637764677802664  0.5019261055565423
  0.1091899417718167  0.1624339550322773  0.4994908700625516
  0.2223809800520513  0.1671787645513518  0.4997912547275689
  0.0017174030110070  0.3364642364288102  0.5000469693663803
  0.1122719262588987  0.3325179734746015  0.4966523236193581
  0.2253948654699727  0.3366783101625401  0.4983801338523719
  0.0015535415887911  0.9981097680509095  0.5808488070429974
  0.3330892694200998  0.5014294896568430  0.4181634121029205
  0.1094333505658298  0.9980528064917209  0.5005233634384894
  0.2248961890282715  0.9993452086086094  0.5015529186844532
  0.0011502750828214  0.6637764677802664  0.5019261055565423
  0.1091899417718167  0.6624339550322773  0.4994908700625516
  0.2223809800520513  0.6671787645513518  0.4997912547275689
  0.0017174030110070  0.8364642364288102  0.5000469693663803
  0.1122719262588987  0.8325179734746015  0.4966523236193581
  0.2253948654699727  0.8366783101625401  0.4983801338523719
  0.3348868749221268  0.4981097680509095  0.5808488070429974
  0.6664226027534284  0.0014294896568430  0.4181634121029205
  0.4427666838991726  0.4980528064917209  0.5005233634384894
  0.5582295223616072  0.4993452086086094  0.5015529186844532
  0.3344836084161500  0.1637764677802664  0.5019261055565423
  0.4425232751051524  0.1624339550322773  0.4994908700625516
  0.5557143133853870  0.1671787645513518  0.4997912547275689
  0.3350507363443427  0.3364642364288102  0.5000469693663803
  0.4456052595922273  0.3325179734746015  0.4966523236193581
  0.5587281988033013  0.3366783101625401  0.4983801338523719
  0.3348868749221268  0.9981097680509095  0.5808488070429974
  0.6664226027534284  0.5014294896568430  0.4181634121029205
  0.4427666838991726  0.9980528064917209  0.5005233634384894
  0.5582295223616072  0.9993452086086094  0.5015529186844532
  0.3344836084161500  0.6637764677802664  0.5019261055565423
  0.4425232751051524  0.6624339550322773  0.4994908700625516
  0.5557143133853870  0.6671787645513518  0.4997912547275689
  0.3350507363443427  0.8364642364288102  0.5000469693663803
  0.4456052595922273  0.8325179734746015  0.4966523236193581
  0.5587281988033013  0.8366783101625401  0.4983801338523719
  0.6682202082554625  0.4981097680509095  0.5808488070429974
  0.9997559360867712  0.0014294896568430  0.4181634121029205
  0.7761000172325012  0.4980528064917209  0.5005233634384894
  0.8915628556949429  0.4993452086086094  0.5015529186844532
  0.6678169417494928  0.1637764677802664  0.5019261055565423
  0.7758566084384810  0.1624339550322773  0.4994908700625516
  0.8890476467187227  0.1671787645513518  0.4997912547275689
  0.6683840696776713  0.3364642364288102  0.5000469693663803
  0.7789385929255701  0.3325179734746015  0.4966523236193581
  0.8920615321366299  0.3366783101625401  0.4983801338523719
  0.6682202082554625  0.9981097680509095  0.5808488070429974
  0.9997559360867712  0.5014294896568430  0.4181634121029205
  0.7761000172325012  0.9980528064917209  0.5005233634384894
  0.8915628556949429  0.9993452086086094  0.5015529186844532
  0.6678169417494928  0.6637764677802664  0.5019261055565423
  0.7758566084384810  0.6624339550322773  0.4994908700625516
  0.8890476467187227  0.6671787645513518  0.4997912547275689
  0.6683840696776713  0.8364642364288102  0.5000469693663803
  0.7789385929255701  0.8325179734746015  0.4966523236193581
  0.8920615321366299  0.8366783101625401  0.4983801338523719
  0.0949379166920465  0.0681276968381397  0.4273372284858823
  0.0531446758760907  0.1403827583337076  0.5753151281289206
  0.1359910202769683  0.1026157206854634  0.5721956411104827
  0.1859048285688374  0.0522723434209027  0.4265313085986406
  0.1499872751107176  0.2773613794543976  0.5729795828369291
  0.0658192609694623  0.1987241359798801  0.4283498098452725
  0.0414829712401499  0.2777874368489321  0.5737009689258699
  0.1850004999620865  0.2216624694675602  0.4253065140756433
  0.0504431444341904  0.4212633088682480  0.5739060205666888
  0.0689128329755633  0.3993932998552125  0.4269369686764790
  0.1483648274821476  0.4383873504085400  0.5733795654835703
  0.2013079278817784  0.4032314436800277  0.4276993216012883
  0.2411586086945405  0.4198267226440677  0.5739116565475015
  0.2910533732407501  0.3587100664101897  0.4263798069185825
  0.2638019036190400  0.2933446944384883  0.5713730050845882
  0.3012389000830424  0.2249631424099121  0.4260931029100590
  0.2599952680985922  0.1096021127710571  0.5730012824201509
  0.2867103014224313  0.0738766660792578  0.4293586879386169
  0.2723437523276431  0.4231363654938392  0.3569214664883376
  0.0401946735050629  0.4817395542616367  0.3493832813336581
  0.0095025014919585  0.0865556008067401  0.3538292672406271
  0.0537121604530100  0.0287634632852232  0.6549326310396069
  0.3046060245014104  0.4245404304268305  0.6571576208458936
  0.0949379166920465  0.5681276968381397  0.4273372284858823
  0.0531446758760907  0.6403827583337076  0.5753151281289206
  0.1359910202769683  0.6026157206854634  0.5721956411104827
  0.1859048285688374  0.5522723434209027  0.4265313085986406
  0.1499872751107176  0.7773613794543976  0.5729795828369291
  0.0658192609694623  0.6987241359798801  0.4283498098452725
  0.0414829712401499  0.7777874368489321  0.5737009689258699
  0.1850004999620865  0.7216624694675602  0.4253065140756433
  0.0504431444341904  0.9212633088682480  0.5739060205666888
  0.0689128329755633  0.8993932998552125  0.4269369686764790
  0.1483648274821476  0.9383873504085400  0.5733795654835703
  0.2013079278817784  0.9032314436800277  0.4276993216012883
  0.2411586086945405  0.9198267226440677  0.5739116565475015
  0.2910533732407501  0.8587100664101897  0.4263798069185825
  0.2638019036190400  0.7933446944384883  0.5713730050845882
  0.3012389000830424  0.7249631424099121  0.4260931029100590
  0.2599952680985922  0.6096021127710571  0.5730012824201509
  0.2867103014224313  0.5738766660792578  0.4293586879386169
  0.2723437523276431  0.9231363654938392  0.3569214664883376
  0.0401946735050629  0.9817395542616367  0.3493832813336581
  0.0095025014919585  0.5865556008067401  0.3538292672406271
  0.0537121604530100  0.5287634632852232  0.6549326310396069
  0.3046060245014104  0.9245404304268305  0.6571576208458936
  0.4282712500253822  0.0681276968381397  0.4273372284858823
  0.3864780092094264  0.1403827583337076  0.5753151281289206
  0.4693243536103111  0.1026157206854634  0.5721956411104827
  0.5192381619021802  0.0522723434209027  0.4265313085986406
  0.4833206084440533  0.2773613794543976  0.5729795828369291
  0.3991525943027909  0.1987241359798801  0.4283498098452725
  0.3748163045734927  0.2777874368489321  0.5737009689258699
  0.5183338332954222  0.2216624694675602  0.4253065140756433
  0.3837764777675190  0.4212633088682480  0.5739060205666888
  0.4022461663088990  0.3993932998552125  0.4269369686764790
  0.4816981608154904  0.4383873504085400  0.5733795654835703
  0.5346412612151070  0.4032314436800277  0.4276993216012883
  0.5744919420278691  0.4198267226440677  0.5739116565475015
  0.6243867065740787  0.3587100664101897  0.4263798069185825
  0.5971352369523686  0.2933446944384883  0.5713730050845882
  0.6345722334163710  0.2249631424099121  0.4260931029100590
  0.5933286014319208  0.1096021127710571  0.5730012824201509
  0.6200436347557670  0.0738766660792578  0.4293586879386169
  0.6056770856609788  0.4231363654938392  0.3569214664883376
  0.3735280068383915  0.4817395542616367  0.3493832813336581
  0.3428358348252871  0.0865556008067401  0.3538292672406271
  0.3870454937863528  0.0287634632852232  0.6549326310396069
  0.6379393578347532  0.4245404304268305  0.6571576208458936
  0.4282712500253822  0.5681276968381397  0.4273372284858823
  0.3864780092094264  0.6403827583337076  0.5753151281289206
  0.4693243536103111  0.6026157206854634  0.5721956411104827
  0.5192381619021802  0.5522723434209027  0.4265313085986406
  0.4833206084440533  0.7773613794543976  0.5729795828369291
  0.3991525943027909  0.6987241359798801  0.4283498098452725
  0.3748163045734927  0.7777874368489321  0.5737009689258699
  0.5183338332954222  0.7216624694675602  0.4253065140756433
  0.3837764777675190  0.9212633088682480  0.5739060205666888
  0.4022461663088990  0.8993932998552125  0.4269369686764790
  0.4816981608154904  0.9383873504085400  0.5733795654835703
  0.5346412612151070  0.9032314436800277  0.4276993216012883
  0.5744919420278691  0.9198267226440677  0.5739116565475015
  0.6243867065740787  0.8587100664101897  0.4263798069185825
  0.5971352369523686  0.7933446944384883  0.5713730050845882
  0.6345722334163710  0.7249631424099121  0.4260931029100590
  0.5933286014319208  0.6096021127710571  0.5730012824201509
  0.6200436347557670  0.5738766660792578  0.4293586879386169
  0.6056770856609788  0.9231363654938392  0.3569214664883376
  0.3735280068383915  0.9817395542616367  0.3493832813336581
  0.3428358348252871  0.5865556008067401  0.3538292672406271
  0.3870454937863528  0.5287634632852232  0.6549326310396069
  0.6379393578347532  0.9245404304268305  0.6571576208458936
  0.7616045833587108  0.0681276968381397  0.4273372284858823
  0.7198113425427621  0.1403827583337076  0.5753151281289206
  0.8026576869436397  0.1026157206854634  0.5721956411104827
  0.8525714952355088  0.0522723434209027  0.4265313085986406
  0.8166539417773819  0.2773613794543976  0.5729795828369291
  0.7324859276361195  0.1987241359798801  0.4283498098452725
  0.7081496379068213  0.2777874368489321  0.5737009689258699
  0.8516671666287507  0.2216624694675602  0.4253065140756433
  0.7171098111008476  0.4212633088682480  0.5739060205666888
  0.7355794996422276  0.3993932998552125  0.4269369686764790
  0.8150314941488190  0.4383873504085400  0.5733795654835703
  0.8679745945484498  0.4032314436800277  0.4276993216012883
  0.9078252753611977  0.4198267226440677  0.5739116565475015
  0.9577200399074073  0.3587100664101897  0.4263798069185825
  0.9304685702856972  0.2933446944384883  0.5713730050845882
  0.9679055667497067  0.2249631424099121  0.4260931029100590
  0.9266619347652494  0.1096021127710571  0.5730012824201509
  0.9533769680891027  0.0738766660792578  0.4293586879386169
  0.9390104189943074  0.4231363654938392  0.3569214664883376
  0.7068613401717201  0.4817395542616367  0.3493832813336581
  0.6761691681586228  0.0865556008067401  0.3538292672406271
  0.7203788271196814  0.0287634632852232  0.6549326310396069
  0.9712726911680818  0.4245404304268305  0.6571576208458936
  0.7616045833587108  0.5681276968381397  0.4273372284858823
  0.7198113425427621  0.6403827583337076  0.5753151281289206
  0.8026576869436397  0.6026157206854634  0.5721956411104827
  0.8525714952355088  0.5522723434209027  0.4265313085986406
  0.8166539417773819  0.7773613794543976  0.5729795828369291
  0.7324859276361195  0.6987241359798801  0.4283498098452725
  0.7081496379068213  0.7777874368489321  0.5737009689258699
  0.8516671666287507  0.7216624694675602  0.4253065140756433
  0.7171098111008476  0.9212633088682480  0.5739060205666888
  0.7355794996422276  0.8993932998552125  0.4269369686764790
  0.8150314941488190  0.9383873504085400  0.5733795654835703
  0.8679745945484498  0.9032314436800277  0.4276993216012883
  0.9078252753611977  0.9198267226440677  0.5739116565475015
  0.9577200399074073  0.8587100664101897  0.4263798069185825
  0.9304685702856972  0.7933446944384883  0.5713730050845882
  0.9679055667497067  0.7249631424099121  0.4260931029100590
  0.9266619347652494  0.6096021127710571  0.5730012824201509
  0.9533769680891027  0.5738766660792578  0.4293586879386169
  0.9390104189943074  0.9231363654938392  0.3569214664883376
  0.7068613401717201  0.9817395542616367  0.3493832813336581
  0.6761691681586228  0.5865556008067401  0.3538292672406271
  0.7203788271196814  0.5287634632852232  0.6549326310396069
  0.9712726911680818  0.9245404304268305  0.6571576208458936
  0.9576626268569868  0.5143264398119598  0.6468952523520670
  0.9576626268569868  0.0143264398119598  0.6468952523520670
  0.2909959601903225  0.0143264398119598  0.6468952523520670
  0.6243292935236511  0.5143264398119598  0.6468952523520670
  0.6243292935236511  0.0143264398119598  0.6468952523520670
  0.0713940294131490  0.0523733257483769  0.4561266659281600
  0.0339329215374775  0.1062475367815878  0.5470778298507923
  0.1451166440989411  0.1081886985530218  0.5377448551739334
  0.1859530046121307  0.0549800720710323  0.4616789051339509
  0.1496226115993835  0.2769936695949866  0.5378012461953432
  0.0728848622706977  0.2166746367710530  0.4622974220001410
  0.0387574467755272  0.2768663471975117  0.5386140640695700
  0.1854179334481785  0.2220282933209319  0.4604982586414579
  0.0391064053402417  0.4408895407629032  0.5458525399049421
  0.0738379744045830  0.3907920695338092  0.4610832557632634
  0.1492547342513006  0.4426727735958025  0.5382955343320504
  0.1895116446799889  0.3919805348845529  0.4616407631992416
  0.2633285138611328  0.4491271952988001  0.5454445446661111
  0.2990643989877171  0.3944970047082919  0.4547253970059728
  0.2611071271300673  0.2816259790412374  0.5366995884658934
  0.2981644664778500  0.2232555470614699  0.4611725906482107
  0.2598048511585702  0.1110071693152435  0.5378380839870900
  0.2983147163031390  0.0543358897419708  0.4574594920193533
  0.2698021899177476  0.4628364355602912  0.3783951291911265
  0.0270089222329872  0.4469969495148476  0.3783738159899173
  0.0350496330755590  0.0993872933026978  0.3809941981663698
  0.0587313696238283  0.0589431474377378  0.6247715520806167
  0.2926246289940195  0.4102950112150907  0.6236350133646198
  0.0713940294131490  0.5523733257483769  0.4561266659281600
  0.0339329215374775  0.6062475367815878  0.5470778298507923
  0.1451166440989411  0.6081886985530218  0.5377448551739334
  0.1859530046121307  0.5549800720710323  0.4616789051339509
  0.1496226115993835  0.7769936695949866  0.5378012461953432
  0.0728848622706977  0.7166746367710530  0.4622974220001410
  0.0387574467755272  0.7768663471975117  0.5386140640695700
  0.1854179334481785  0.7220282933209319  0.4604982586414579
  0.0391064053402417  0.9408895407629032  0.5458525399049421
  0.0738379744045830  0.8907920695338092  0.4610832557632634
  0.1492547342513006  0.9426727735958025  0.5382955343320504
  0.1895116446799889  0.8919805348845529  0.4616407631992416
  0.2633285138611328  0.9491271952988001  0.5454445446661111
  0.2990643989877171  0.8944970047082919  0.4547253970059728
  0.2611071271300673  0.7816259790412374  0.5366995884658934
  0.2981644664778500  0.7232555470614699  0.4611725906482107
  0.2598048511585702  0.6110071693152435  0.5378380839870900
  0.2983147163031390  0.5543358897419708  0.4574594920193533
  0.2698021899177476  0.9628364355602912  0.3783951291911265
  0.0270089222329872  0.9469969495148476  0.3783738159899173
  0.0350496330755590  0.5993872933026978  0.3809941981663698
  0.0587313696238283  0.5589431474377378  0.6247715520806167
  0.2926246289940195  0.9102950112150907  0.6236350133646198
  0.4047273627464918  0.0523733257483769  0.4561266659281600
  0.3672662548708203  0.1062475367815878  0.5470778298507923
  0.4784499774322697  0.1081886985530218  0.5377448551739334
  0.5192863379454593  0.0549800720710323  0.4616789051339509
  0.4829559449327121  0.2769936695949866  0.5378012461953432
  0.4062181956040405  0.2166746367710530  0.4622974220001410
  0.3720907801088629  0.2768663471975117  0.5386140640695700
  0.5187512667815213  0.2220282933209319  0.4604982586414579
  0.3724397386735703  0.4408895407629032  0.5458525399049421
  0.4071713077379187  0.3907920695338092  0.4610832557632634
  0.4825880675846292  0.4426727735958025  0.5382955343320504
  0.5228449780133317  0.3919805348845529  0.4616407631992416
  0.5966618471944614  0.4491271952988001  0.5454445446661111
  0.6323977323210599  0.3944970047082919  0.4547253970059728
  0.5944404604634030  0.2816259790412374  0.5366995884658934
  0.6314977998111786  0.2232555470614699  0.4611725906482107
  0.5931381844918988  0.1110071693152435  0.5378380839870900
  0.6316480496364818  0.0543358897419708  0.4574594920193533
  0.6031355232510904  0.4628364355602912  0.3783951291911265
  0.3603422555663300  0.4469969495148476  0.3783738159899173
  0.3683829664089018  0.0993872933026978  0.3809941981663698
  0.3920647029571569  0.0589431474377378  0.6247715520806167
  0.6259579623273481  0.4102950112150907  0.6236350133646198
  0.4047273627464918  0.5523733257483769  0.4561266659281600
  0.3672662548708203  0.6062475367815878  0.5470778298507923
  0.4784499774322697  0.6081886985530218  0.5377448551739334
  0.5192863379454593  0.5549800720710323  0.4616789051339509
  0.4829559449327121  0.7769936695949866  0.5378012461953432
  0.4062181956040405  0.7166746367710530  0.4622974220001410
  0.3720907801088629  0.7768663471975117  0.5386140640695700
  0.5187512667815213  0.7220282933209319  0.4604982586414579
  0.3724397386735703  0.9408895407629032  0.5458525399049421
  0.4071713077379187  0.8907920695338092  0.4610832557632634
  0.4825880675846292  0.9426727735958025  0.5382955343320504
  0.5228449780133317  0.8919805348845529  0.4616407631992416
  0.5966618471944614  0.9491271952988001  0.5454445446661111
  0.6323977323210599  0.8944970047082919  0.4547253970059728
  0.5944404604634030  0.7816259790412374  0.5366995884658934
  0.6314977998111786  0.7232555470614699  0.4611725906482107
  0.5931381844918988  0.6110071693152435  0.5378380839870900
  0.6316480496364818  0.5543358897419708  0.4574594920193533
  0.6031355232510904  0.9628364355602912  0.3783951291911265
  0.3603422555663300  0.9469969495148476  0.3783738159899173
  0.3683829664089018  0.5993872933026978  0.3809941981663698
  0.3920647029571569  0.5589431474377378  0.6247715520806167
  0.6259579623273481  0.9102950112150907  0.6236350133646198
  0.7380606960798204  0.0523733257483769  0.4561266659281600
  0.7005995882041489  0.1062475367815878  0.5470778298507923
  0.8117833107656125  0.1081886985530218  0.5377448551739334
  0.8526196712788021  0.0549800720710323  0.4616789051339509
  0.8162892782660407  0.2769936695949866  0.5378012461953432
  0.7395515289373691  0.2166746367710530  0.4622974220001410
  0.7054241134421915  0.2768663471975117  0.5386140640695700
  0.8520846001148499  0.2220282933209319  0.4604982586414579
  0.7057730720069131  0.4408895407629032  0.5458525399049421
  0.7405046410712472  0.3907920695338092  0.4610832557632634
  0.8159214009179721  0.4426727735958025  0.5382955343320504
  0.8561783113466603  0.3919805348845529  0.4616407631992416
  0.9299951805277971  0.4491271952988001  0.5454445446661111
  0.9657310656543885  0.3944970047082919  0.4547253970059728
  0.9277737937967387  0.2816259790412374  0.5366995884658934
  0.9648311331445072  0.2232555470614699  0.4611725906482107
  0.9264715178252416  0.1110071693152435  0.5378380839870900
  0.9649813829698104  0.0543358897419708  0.4574594920193533
  0.9364688565844190  0.4628364355602912  0.3783951291911265
  0.6936755888996586  0.4469969495148476  0.3783738159899173
  0.7017162997422304  0.0993872933026978  0.3809941981663698
  0.7253980362904926  0.0589431474377378  0.6247715520806167
  0.9592912956606767  0.4102950112150907  0.6236350133646198
  0.7380606960798204  0.5523733257483769  0.4561266659281600
  0.7005995882041489  0.6062475367815878  0.5470778298507923
  0.8117833107656125  0.6081886985530218  0.5377448551739334
  0.8526196712788021  0.5549800720710323  0.4616789051339509
  0.8162892782660407  0.7769936695949866  0.5378012461953432
  0.7395515289373691  0.7166746367710530  0.4622974220001410
  0.7054241134421915  0.7768663471975117  0.5386140640695700
  0.8520846001148499  0.7220282933209319  0.4604982586414579
  0.7057730720069131  0.9408895407629032  0.5458525399049421
  0.7405046410712472  0.8907920695338092  0.4610832557632634
  0.8159214009179721  0.9426727735958025  0.5382955343320504
  0.8561783113466603  0.8919805348845529  0.4616407631992416
  0.9299951805277971  0.9491271952988001  0.5454445446661111
  0.9657310656543885  0.8944970047082919  0.4547253970059728
  0.9277737937967387  0.7816259790412374  0.5366995884658934
  0.9648311331445072  0.7232555470614699  0.4611725906482107
  0.9264715178252416  0.6110071693152435  0.5378380839870900
  0.9649813829698104  0.5543358897419708  0.4574594920193533
  0.9364688565844190  0.9628364355602912  0.3783951291911265
  0.6936755888996586  0.9469969495148476  0.3783738159899173
  0.7017162997422304  0.5993872933026978  0.3809941981663698
  0.7253980362904926  0.5589431474377378  0.6247715520806167
  0.9592912956606767  0.9102950112150907  0.6236350133646198
  0.9735882288242621  0.5519251505087226  0.6192704233836466
  0.9735882288242621  0.0519251505087226  0.6192704233836466
  0.3069215621575907  0.0519251505087226  0.6192704233836466
  0.6402548954909193  0.5519251505087226  0.6192704233836466
  0.6402548954909193  0.0519251505087226  0.6192704233836466
  0.3069215621575907  0.5519251505087226  0.6192704233836466
